103388
1,10,29,64,14,70,62,80,54,46,45,73,13,37,18,65,50,63,39,52,41,78,61,6,79,83,8,28,35,30,15,69,25,42,55,23,12,3,43,57,34,49,47,60,81,72,51,2,38,16,75,40,11,33,27,7,56,17,77,9,58,74,32,82,5,22,44,68,59,53,4,31,24,19,48,21,71,66,36,26,76,67,20